CUST NO.   XCOORD.   YCOORD.   DEMAND    READY TIME   DUE DATE   SERVICE TIME
    1      40.00      50.00       0.00       0.00     960.00       0.00
    2      25.00      85.00      20.00     431.00     911.00      10.00
    3      22.00      75.00      30.00      30.00     510.00      10.00
    4      22.00      85.00      10.00     291.00     771.00      10.00
    5      20.00      80.00      40.00     674.00     734.00      10.00
    6      20.00      85.00      20.00      40.00     520.00      10.00
    7      18.00      75.00      20.00     393.00     502.00      10.00
    8      15.00      75.00      20.00     120.00     600.00      10.00
    9      15.00      80.00      10.00     397.00     457.00      10.00
   10      10.00      35.00      20.00     401.00     461.00      10.00
   11      10.00      40.00      30.00     535.00     622.00      10.00
   12       8.00      40.00      40.00     225.00     285.00      10.00
   13       8.00      45.00      20.00      43.00     523.00      10.00
   14       5.00      35.00      10.00     683.00     743.00      10.00
   15       5.00      45.00      10.00      35.00     366.00      10.00
   16       2.00      40.00      20.00     204.00     264.00      10.00
   17       0.00      40.00      20.00     204.00     425.00      10.00
   18       0.00      45.00      20.00     698.00     827.00      10.00
   19      44.00       5.00      20.00     306.00     483.00      10.00
   20      42.00      10.00      40.00     199.00     428.00      10.00
   21      42.00      15.00      10.00     494.00     699.00      10.00
   22      40.00       5.00      10.00      45.00     525.00      10.00
   23      40.00      15.00      40.00     383.00     486.00      10.00
   24      38.00       5.00      30.00     231.00     291.00      10.00
   25      38.00      15.00      10.00     609.00     872.00      10.00
   26      35.00       5.00      20.00     821.00     881.00      10.00
   27      95.00      30.00      30.00     349.00     829.00      10.00
   28      95.00      35.00      20.00     138.00     273.00      10.00
   29      92.00      30.00      10.00      78.00     339.00      10.00
   30      90.00      35.00      10.00     132.00     375.00      10.00
   31      88.00      30.00      10.00     252.00     359.00      10.00
   32      88.00      35.00      20.00      50.00     530.00      10.00
   33      87.00      30.00      10.00     562.00     799.00      10.00
   34      85.00      25.00      10.00      71.00     208.00      10.00
   35      85.00      35.00      30.00     307.00     787.00      10.00
   36      67.00      85.00      20.00     655.00     778.00      10.00
   37      65.00      85.00      40.00      43.00     186.00      10.00
   38      65.00      82.00      10.00     377.00     857.00      10.00
   39      62.00      80.00      30.00     308.00     368.00      10.00
   40      60.00      80.00      10.00      46.00     201.00      10.00
   41      60.00      85.00      30.00     339.00     438.00      10.00
   42      58.00      75.00      20.00     377.00     494.00      10.00
   43      55.00      80.00      10.00      33.00     166.00      10.00
   44      55.00      85.00      20.00     531.00     736.00      10.00
   45      55.00      82.00      10.00     247.00     307.00      10.00
   46      20.00      82.00      10.00      37.00     177.00      10.00
   47      18.00      80.00      10.00     432.00     665.00      10.00
   48       2.00      45.00      10.00      38.00     322.00      10.00
   49      42.00       5.00      10.00     424.00     904.00      10.00
   50      42.00      12.00      10.00     460.00     539.00      10.00
   51      72.00      35.00      30.00     327.00     807.00      10.00
